
(declare-fun %y () (_ BitVec 5))
(declare-fun %x () (_ BitVec 5))
(assert (not (= (bvand ((_ zero_extend 13) %x) ((_ zero_extend 13) %y)) ((_ zero_extend 13) (bvand %x %y)))))
(assert true)
(check-sat)